254 252 251 250 249 248 241 242 244 245 247 246 238 239 243 240 237 236 235 234 232 233 530 529 490 491 492 493 524 525 526 523 522 521 520 517 516 515 514 513 512 527 528 511 510 509 506 507 508 302 301 303 307 304 306 319 320 321 317 318 305 313 316 314 315 374 373 322 323 326 327 367 365 368 369 370 372 371 396 395 375 376 377 378 379 380 447 448 449 446 445 444 443 442 439 440 441 450 451 312 311 310 309 308 505 504 503 502 498 501 500 499 453 452 461 462 463 464 466 467 468 469 470 465 496 497 519 518 494 495 471 472 473 474 570 569 568 19 20 21 24 25 26 27 567 566 565 564 563 562 561 560 549 548 478 477 479 480 476 475 482 481 483 485 484 536 535 487 486 534 488 489 531 532 533 231 230 229 228 227 189 225 226 190 191 192 219 218 220 221 222 224 223 217 216 215 214 213 212 211 210 209 193 194 195 196 197 205 206 207 208 203 204 202 198 199 200 201 165 164 154 155 159 156 153 157 158 145 144 143 142 146 147 148 152 149 150 151 141 140 139 136 135 134 133 132 131 130 129 137 138 124 125 126 127 128 116 115 110 111 114 112 113 161 160 162 168 163 167 166 184 183 185 186 182 178 187 188 538 537 539 540 176 177 179 181 180 169 171 170 172 175 174 173 108 109 107 542 541 543 544 545 546 547 103 104 105 106 118 119 120 121 117 122 123 71 70 69 68 67 66 65 72 73 74 75 76 64 63 61 60 59 58 57 82 83 56 55 53 54 52 50 51 84 81 80 79 62 78 77 88 89 90 87 86 85 92 93 94 97 95 96 98 99 100 102 101 551 550 559 558 557 552 553 554 556 555 91 49 48 47 46 45 44 43 42 39 41 40 38 37 36 35 34 33 32 30 29 28 31 22 23 12 13 14 15 16 11 10 9 18 17 8 7 6 5 4 3 2 1 0 573 572 571 460 459 458 457 456 455 454 438 437 436 435 434 433 432 430 431 429 428 427 426 420 421 422 423 424 425 382 386 387 388 389 390 381 392 391 393 394 397 398 399 400 404 405 406 407 408 385 383 384 410 418 419 417 411 412 409 403 402 401 360 359 358 357 356 355 354 353 352 413 414 416 415 351 350 349 348 347 362 361 363 364 346 345 344 339 338 337 336 333 335 334 283 284 285 286 287 280 281 282 279 278 277 276 288 289 290 275 274 273 272 271 267 268 269 270 292 291 293 294 296 295 330 331 332 340 341 343 342 366 329 328 325 324 297 298 266 265 264 263 262 299 300 258 259 261 260 257 256 255 253